p cnf 41 122
a 34 36 0
e 1 2 3 4 5 6 7 8 9 10 11 12 13 14 15 16 17 18 19 20 21 22 23 24 25 26 27 28 29 30 31 32 33 35 37 38 39 40 41 0
3 1 0
3 2 0
-1 -2 -3 0
-5 -3 0
-5 -4 0
3 4 5 0
-1 -5 -6 0
1 5 -6 0
-1 5 6 0
1 -5 6 0
6 7 -8 0
-6 -7 -8 0
6 -7 8 0
-6 7 8 0
-10 6 0
-10 -9 0
-6 9 10 0
-11 -7 0
-11 10 0
7 -10 11 0
12 8 0
12 -11 0
-8 11 -12 0
14 13 0
14 -2 0
-13 2 -14 0
-15 -13 -16 0
15 13 -16 0
-15 13 16 0
15 -13 16 0
-14 16 -17 0
14 -16 -17 0
-14 -16 17 0
14 16 17 0
-18 -12 0
-18 -17 0
12 17 18 0
-19 13 0
-19 -1 0
-13 1 19 0
20 19 0
20 13 0
-19 -13 -20 0
21 14 0
21 20 0
-14 -20 -21 0
-22 -18 0
-22 -21 0
18 21 22 0
23 -2 0
23 -16 0
2 16 -23 0
-24 -7 0
-24 20 0
7 -20 24 0
25 -7 0
25 15 0
7 -15 -25 0
25 2 -26 0
-25 -2 -26 0
25 -2 26 0
-25 2 26 0
-24 26 -27 0
24 -26 -27 0
-24 -26 27 0
24 26 27 0
-28 -23 0
-28 27 0
23 -27 28 0
25 16 -29 0
-25 -16 -29 0
25 -16 29 0
-25 16 29 0
-30 29 0
-30 25 0
-29 -25 30 0
-2 -31 -32 0
2 31 -32 0
-2 31 32 0
2 -31 32 0
1 7 -33 0
-1 -7 -33 0
1 -7 33 0
-1 7 33 0
-33 2 -34 0
33 -2 -34 0
-33 -2 34 0
33 2 34 0
35 -32 0
35 -34 0
32 34 -35 0
36 30 0
36 -35 0
-30 35 -36 0
-28 36 -37 0
28 -36 -37 0
-28 -36 37 0
28 36 37 0
38 -7 0
38 7 0
39 -38 0
39 7 0
38 -7 -39 0
40 -37 0
40 39 0
37 -39 -40 0
22 -40 -41 0
-22 40 -41 0
22 40 41 0
-22 -40 41 0
37 22 -16 -21 -30 -35 34 0
-30 11 -3 9 -7 0
40 -12 6 -15 -13 3 0
31 -22 8 0
8 27 10 -5 -38 0
-12 25 24 -38 -6 35 2 0
-36 3 39 0
39 23 29 -15 -10 25 40 0
-25 -22 -34 40 0
-41 5 -19 -32 0
20 -36 26 -38 -4 -19 -31 -2 0
41 0
